\ENCODING=ISO-8859-1
\Problem name: IloCplex

Minimize
 obj: 230 x(0)(0)(0)._#1 + 1730 t(0)(0)(0)._#4 + 2230 t(1)(0)(0)._#5 + x7#6
Subject To
 c1:  x(0)(0)(0)._#1  = 1
 c2:  t(0)(0)(0)._#4  = 1
 c3:  t(1)(0)(0)._#5  = 1
 c4:  x(0)(0)(0)._#1 <= 1
 c5:  <= 1
 c6:  <= 1
 c7:  <= 1
 c8:  <= 1
 c9:  <= 1
 c10: - y(0)(0)._#0 + x(0)(0)(0)._#1  = 0
 c11: - u(0)(0)._#2 + t(0)(0)(0)._#4  = 0
 c12: - u(1)(0)._#3 + t(1)(0)(0)._#5  = 0
Bounds
 0 <= y(0)(0)._#0 <= 1
 0 <= x(0)(0)(0)._#1 <= 1
 0 <= u(0)(0)._#2 <= 1
 0 <= u(1)(0)._#3 <= 1
 0 <= t(0)(0)(0)._#4 <= 1
 0 <= t(1)(0)(0)._#5 <= 1
      x7#6 = 0
Binaries
 y(0)(0)._#0  x(0)(0)(0)._#1  u(0)(0)._#2  u(1)(0)._#3  t(0)(0)(0)._#4 
 t(1)(0)(0)._#5 
End
